(declare-const r Relation)
(declare-fun p1 (World) Bool)
(declare-fun p0 (World) Bool)
(declare-fun p3 (World) Bool)
(declare-fun p4 (World) Bool)
(assert (not (or (or (or (or (dia r (not (=> (box r (not (p1 world))) (box r (box r (not (p1 world))))))) (box r (or (or (dia r (not (=> (box r (not (p1 world))) (box r (box r (not (p1 world))))))) (box r (or (or (dia r (not (=> (box r (not (p1 world))) (box r (box r (not (p1 world))))))) (box r (or (or (dia r (not (=> (box r (not (p1 world))) (box r (box r (not (p1 world))))))) (box r (or (or (dia r (not (=> (box r (not (p1 world))) (box r (box r (not (p1 world))))))) (box r (or (or (dia r (not (=> (box r (not (p1 world))) (box r (box r (not (p1 world))))))) (box r (dia r (box r (p0 world))))) (box r (=> (not (box r (p1 world))) (box r (not (box r (p1 world))))))))) (box r (=> (not (box r (p1 world))) (box r (not (box r (p1 world))))))))) (box r (=> (not (box r (p1 world))) (box r (not (box r (p1 world))))))))) (box r (=> (not (box r (p1 world))) (box r (not (box r (p1 world))))))))) (box r (=> (not (box r (p1 world))) (box r (not (box r (p1 world))))))))) (box r (=> (not (box r (p1 world))) (box r (not (box r (p1 world))))))) (or (or (dia r (and (box r (p1 world)) (dia r (dia r (not (p1 world)))))) (dia r (or (or (dia r (and (box r (p1 world)) (dia r (dia r (not (p1 world)))))) (dia r (or (or (dia r (and (box r (p1 world)) (dia r (dia r (not (p1 world)))))) (dia r (or (or (dia r (and (box r (p1 world)) (dia r (dia r (not (p1 world)))))) (dia r (or (or (dia r (and (box r (p1 world)) (dia r (dia r (not (p1 world)))))) (dia r (or (or (dia r (and (box r (p1 world)) (dia r (dia r (not (p1 world)))))) (dia r (or (or (or (or (and (box r (dia r (p0 world))) (box r (or (not (p0 world)) (box r (p3 world))))) (dia r (and (box r (dia r (box r (or (not (p0 world)) (box r (p3 world)))))) (box r (dia r (p0 world)))))) (and (box r (dia r (p0 world))) (dia r (dia r (box r (or (not (p0 world)) (box r (p3 world)))))))) (dia r (and (and (dia r (box r (dia r (p0 world)))) (p0 world)) (dia r (or (not (p0 world)) (box r (p3 world))))))) (dia r (box r (or (not (p0 world)) (box r (p3 world)))))))) (dia r (and (box r (dia r (p1 world))) (dia r (dia r (box r (not (p1 world)))))))))) (dia r (and (box r (dia r (p1 world))) (dia r (dia r (box r (not (p1 world)))))))))) (dia r (and (box r (dia r (p1 world))) (dia r (dia r (box r (not (p1 world)))))))))) (dia r (and (box r (dia r (p1 world))) (dia r (dia r (box r (not (p1 world)))))))))) (dia r (and (box r (dia r (p1 world))) (dia r (dia r (box r (not (p1 world)))))))))) (dia r (and (box r (dia r (p1 world))) (dia r (dia r (box r (not (p1 world))))))))) (dia r (p4 world)))))
